1693.61
0 55 26 34 50 98 97 6 84 88 75 59 71 18 74 78 90 66 38 5 44 89 92 46 48 95 1 63 36 51 86 7 67 77 33 23 17 3 65 62 16 41 58 32 57 80 20 42 37 19 79 24 54 70 14 49 82 28 45 52 69 29 83 47 35 53 11 93 94 81 9 39 40 12 10 30 99 72 85 8 21 73 91 43 56 60 13 96 15 22 61 76 2 68 64 31 87 4 27 25
